WARNING: for repeatability, setting FPU to use double precision
============================[ Problem Statistics ]=============================
|                                                                             |
|  Number of variables:            50                                         |
|  Number of clauses:             218                                         |
|  Parse time:                   0.00 s                                       |
|                                                                             |
============================[ Search Statistics ]==============================
| Conflicts |          ORIGINAL         |          LEARNT          | Progress |
|           |    Vars  Clauses Literals |    Limit  Clauses Lit/Cl |          |
===============================================================================
===============================================================================
restarts              : 1
conflicts             : 70             (46419 /sec)
decisions             : 80             (0.00 % random) (53050 /sec)
propagations          : 926            (614058 /sec)
conflict literals     : 288            (7.99 % deleted)
Memory used           : 20.00 MB
CPU time              : 0.001508 s

UNSATISFIABLE
